p cnf 120 508
1 2 3 0
4 5 6 0
7 8 9 0
10 11 12 0
13 14 15 0
16 17 18 0
19 20 21 0
22 23 24 0
25 26 27 0
28 29 30 0
31 32 33 0
34 35 36 0
37 38 39 0
40 41 42 0
43 44 45 0
46 47 48 0
49 50 51 0
52 53 54 0
55 56 57 0
58 59 60 0
61 62 63 0
64 65 66 0
67 68 69 0
70 71 72 0
73 74 75 0
76 77 78 0
79 80 81 0
82 83 84 0
85 86 87 0
88 89 90 0
91 92 93 0
94 95 96 0
97 98 99 0
100 101 102 0
103 104 105 0
106 107 108 0
109 110 111 0
112 113 114 0
115 116 117 0
118 119 120 0
-1 -2 0
-1 -3 0
-2 -3 0
-4 -5 0
-4 -6 0
-5 -6 0
-7 -8 0
-7 -9 0
-8 -9 0
-10 -11 0
-10 -12 0
-11 -12 0
-13 -14 0
-13 -15 0
-14 -15 0
-16 -17 0
-16 -18 0
-17 -18 0
-19 -20 0
-19 -21 0
-20 -21 0
-22 -23 0
-22 -24 0
-23 -24 0
-25 -26 0
-25 -27 0
-26 -27 0
-28 -29 0
-28 -30 0
-29 -30 0
-31 -32 0
-31 -33 0
-32 -33 0
-34 -35 0
-34 -36 0
-35 -36 0
-37 -38 0
-37 -39 0
-38 -39 0
-40 -41 0
-40 -42 0
-41 -42 0
-43 -44 0
-43 -45 0
-44 -45 0
-46 -47 0
-46 -48 0
-47 -48 0
-49 -50 0
-49 -51 0
-50 -51 0
-52 -53 0
-52 -54 0
-53 -54 0
-55 -56 0
-55 -57 0
-56 -57 0
-58 -59 0
-58 -60 0
-59 -60 0
-61 -62 0
-61 -63 0
-62 -63 0
-64 -65 0
-64 -66 0
-65 -66 0
-67 -68 0
-67 -69 0
-68 -69 0
-70 -71 0
-70 -72 0
-71 -72 0
-73 -74 0
-73 -75 0
-74 -75 0
-76 -77 0
-76 -78 0
-77 -78 0
-79 -80 0
-79 -81 0
-80 -81 0
-82 -83 0
-82 -84 0
-83 -84 0
-85 -86 0
-85 -87 0
-86 -87 0
-88 -89 0
-88 -90 0
-89 -90 0
-91 -92 0
-91 -93 0
-92 -93 0
-94 -95 0
-94 -96 0
-95 -96 0
-97 -98 0
-97 -99 0
-98 -99 0
-100 -101 0
-100 -102 0
-101 -102 0
-103 -104 0
-103 -105 0
-104 -105 0
-106 -107 0
-106 -108 0
-107 -108 0
-109 -110 0
-109 -111 0
-110 -111 0
-112 -113 0
-112 -114 0
-113 -114 0
-115 -116 0
-115 -117 0
-116 -117 0
-118 -119 0
-118 -120 0
-119 -120 0
-1 -40 0
-1 -88 0
-4 -67 0
-4 -91 0
-4 -106 0
-7 -16 0
-7 -28 0
-7 -46 0
-10 -40 0
-10 -49 0
-10 -61 0
-13 -55 0
-13 -79 0
-13 -118 0
-16 -7 0
-16 -58 0
-16 -70 0
-19 -31 0
-19 -34 0
-19 -37 0
-22 -31 0
-22 -34 0
-22 -115 0
-25 -43 0
-25 -70 0
-25 -91 0
-28 -7 0
-28 -106 0
-28 -109 0
-31 -19 0
-31 -22 0
-31 -91 0
-34 -19 0
-34 -22 0
-34 -58 0
-37 -19 0
-37 -94 0
-37 -118 0
-40 -1 0
-40 -10 0
-40 -70 0
-43 -25 0
-43 -79 0
-43 -112 0
-46 -7 0
-46 -97 0
-46 -115 0
-49 -10 0
-49 -73 0
-49 -82 0
-52 -79 0
-52 -97 0
-52 -112 0
-55 -13 0
-55 -67 0
-55 -94 0
-58 -16 0
-58 -34 0
-58 -103 0
-61 -10 0
-61 -103 0
-61 -115 0
-64 -67 0
-64 -73 0
-67 -4 0
-67 -55 0
-67 -64 0
-70 -16 0
-70 -25 0
-70 -40 0
-73 -49 0
-73 -64 0
-76 -100 0
-76 -109 0
-76 -118 0
-79 -13 0
-79 -43 0
-79 -52 0
-82 -49 0
-82 -85 0
-82 -109 0
-85 -82 0
-85 -88 0
-85 -94 0
-88 -1 0
-88 -85 0
-91 -4 0
-91 -25 0
-91 -31 0
-94 -37 0
-94 -55 0
-94 -85 0
-97 -46 0
-97 -52 0
-97 -112 0
-100 -76 0
-100 -103 0
-100 -106 0
-103 -58 0
-103 -61 0
-103 -100 0
-106 -4 0
-106 -28 0
-106 -100 0
-109 -28 0
-109 -76 0
-109 -82 0
-112 -43 0
-112 -52 0
-112 -97 0
-115 -22 0
-115 -46 0
-115 -61 0
-118 -13 0
-118 -37 0
-118 -76 0
-2 -41 0
-2 -89 0
-5 -68 0
-5 -92 0
-5 -107 0
-8 -17 0
-8 -29 0
-8 -47 0
-11 -41 0
-11 -50 0
-11 -62 0
-14 -56 0
-14 -80 0
-14 -119 0
-17 -8 0
-17 -59 0
-17 -71 0
-20 -32 0
-20 -35 0
-20 -38 0
-23 -32 0
-23 -35 0
-23 -116 0
-26 -44 0
-26 -71 0
-26 -92 0
-29 -8 0
-29 -107 0
-29 -110 0
-32 -20 0
-32 -23 0
-32 -92 0
-35 -20 0
-35 -23 0
-35 -59 0
-38 -20 0
-38 -95 0
-38 -119 0
-41 -2 0
-41 -11 0
-41 -71 0
-44 -26 0
-44 -80 0
-44 -113 0
-47 -8 0
-47 -98 0
-47 -116 0
-50 -11 0
-50 -74 0
-50 -83 0
-53 -80 0
-53 -98 0
-53 -113 0
-56 -14 0
-56 -68 0
-56 -95 0
-59 -17 0
-59 -35 0
-59 -104 0
-62 -11 0
-62 -104 0
-62 -116 0
-65 -68 0
-65 -74 0
-68 -5 0
-68 -56 0
-68 -65 0
-71 -17 0
-71 -26 0
-71 -41 0
-74 -50 0
-74 -65 0
-77 -101 0
-77 -110 0
-77 -119 0
-80 -14 0
-80 -44 0
-80 -53 0
-83 -50 0
-83 -86 0
-83 -110 0
-86 -83 0
-86 -89 0
-86 -95 0
-89 -2 0
-89 -86 0
-92 -5 0
-92 -26 0
-92 -32 0
-95 -38 0
-95 -56 0
-95 -86 0
-98 -47 0
-98 -53 0
-98 -113 0
-101 -77 0
-101 -104 0
-101 -107 0
-104 -59 0
-104 -62 0
-104 -101 0
-107 -5 0
-107 -29 0
-107 -101 0
-110 -29 0
-110 -77 0
-110 -83 0
-113 -44 0
-113 -53 0
-113 -98 0
-116 -23 0
-116 -47 0
-116 -62 0
-119 -14 0
-119 -38 0
-119 -77 0
-3 -42 0
-3 -90 0
-6 -69 0
-6 -93 0
-6 -108 0
-9 -18 0
-9 -30 0
-9 -48 0
-12 -42 0
-12 -51 0
-12 -63 0
-15 -57 0
-15 -81 0
-15 -120 0
-18 -9 0
-18 -60 0
-18 -72 0
-21 -33 0
-21 -36 0
-21 -39 0
-24 -33 0
-24 -36 0
-24 -117 0
-27 -45 0
-27 -72 0
-27 -93 0
-30 -9 0
-30 -108 0
-30 -111 0
-33 -21 0
-33 -24 0
-33 -93 0
-36 -21 0
-36 -24 0
-36 -60 0
-39 -21 0
-39 -96 0
-39 -120 0
-42 -3 0
-42 -12 0
-42 -72 0
-45 -27 0
-45 -81 0
-45 -114 0
-48 -9 0
-48 -99 0
-48 -117 0
-51 -12 0
-51 -75 0
-51 -84 0
-54 -81 0
-54 -99 0
-54 -114 0
-57 -15 0
-57 -69 0
-57 -96 0
-60 -18 0
-60 -36 0
-60 -105 0
-63 -12 0
-63 -105 0
-63 -117 0
-66 -69 0
-66 -75 0
-69 -6 0
-69 -57 0
-69 -66 0
-72 -18 0
-72 -27 0
-72 -42 0
-75 -51 0
-75 -66 0
-78 -102 0
-78 -111 0
-78 -120 0
-81 -15 0
-81 -45 0
-81 -54 0
-84 -51 0
-84 -87 0
-84 -111 0
-87 -84 0
-87 -90 0
-87 -96 0
-90 -3 0
-90 -87 0
-93 -6 0
-93 -27 0
-93 -33 0
-96 -39 0
-96 -57 0
-96 -87 0
-99 -48 0
-99 -54 0
-99 -114 0
-102 -78 0
-102 -105 0
-102 -108 0
-105 -60 0
-105 -63 0
-105 -102 0
-108 -6 0
-108 -30 0
-108 -102 0
-111 -30 0
-111 -78 0
-111 -84 0
-114 -45 0
-114 -54 0
-114 -99 0
-117 -24 0
-117 -48 0
-117 -63 0
-120 -15 0
-120 -39 0
-120 -78 0
